101
99
97
98
95
93
90
92
91
89
87
88
85
83
80
82
81
79
77
78
75
71
72
69
68
65
67
64
66
63
70
73
62
74
76
61
60
84
86
59
58
94
57
96
100
103
102
105
107
104
106
55
50
53
54
51
52
49
46
45
43
48
47
44
41
38
42
39
40
37
34
33
31
36
35
32
29
26
30
27
28
25
22
21
19
24
23
20
17
14
18
15
16
13
12
11
8
10
9
7
6
3
4
1
2
5
56
101
